; Options: -q --produce-models --incremental --print-success --lang smt2.6 --arrays-exp
(set-logic ALL)

(declare-fun start!2847 () Bool)

(assert start!2847)

(declare-fun b!15646 () Bool)

(declare-fun e!8647 () Bool)

(declare-fun e!8648 () Bool)

(assert (=> b!15646 (= e!8647 e!8648)))

(declare-fun res!12164 () Bool)

(assert (=> b!15646 (=> (not res!12164) (not e!8648))))

(declare-fun i!142 () (_ BitVec 32))

(declare-datatypes ((Unit!1637 0))(
  ( (Unit!1638) )
))
(declare-datatypes ((array!1176 0))(
  ( (array!1177 (arr!513 (Array (_ BitVec 32) (_ BitVec 32))) (size!513 (_ BitVec 32))) )
))
(declare-datatypes ((tuple4!404 0))(
  ( (tuple4!405 (_1!401 Unit!1637) (_2!401 array!1176) (_3!333 (_ BitVec 32)) (_4!202 (_ FloatingPoint 11 53))) )
))
(declare-fun lt!8123 () tuple4!404)

(declare-fun lt!8118 () (_ FloatingPoint 11 53))

(declare-fun jz!20 () (_ BitVec 32))

(assert (=> b!15646 (= res!12164 (and (fp.leq (fp #b0 #b00000000000 #b0000000000000000000000000000000000000000000000000000) lt!8118) (fp.lt lt!8118 (fp #b0 #b10000000010 #b0000000000000000000000000000000000000000000000000000)) (bvsge (select (arr!513 (_2!401 lt!8123)) (bvsub jz!20 #b00000000000000000000000000000001)) #b00000000100000000000000000000000) (bvsle #b00000000000000000000000000000000 i!142) (bvsle i!142 (bvsub jz!20 #b00000000000000000000000000000001))))))

(assert (=> b!15646 (= lt!8118 (fp.sub roundNearestTiesToEven (_4!202 lt!8123) (fp.mul roundNearestTiesToEven (fp #b0 #b10000000010 #b0000000000000000000000000000000000000000000000000000) ((_ to_fp 11 53) roundNearestTiesToEven (ite (fp.isNaN (fp.mul roundNearestTiesToEven (_4!202 lt!8123) (fp #b0 #b01111111100 #b0000000000000000000000000000000000000000000000000000))) #b0000000000000000000000000000000000000000000000000000000000000000 (ite (fp.gt (fp.mul roundNearestTiesToEven (_4!202 lt!8123) (fp #b0 #b01111111100 #b0000000000000000000000000000000000000000000000000000)) ((_ to_fp 11 53) roundTowardZero #b0111111111111111111111111111111111111111111111111111111111111111)) #b0111111111111111111111111111111111111111111111111111111111111111 (ite (fp.lt (fp.mul roundNearestTiesToEven (_4!202 lt!8123) (fp #b0 #b01111111100 #b0000000000000000000000000000000000000000000000000000)) ((_ to_fp 11 53) roundTowardZero #b1000000000000000000000000000000000000000000000000000000000000000)) #b1000000000000000000000000000000000000000000000000000000000000000 ((_ fp.to_sbv 64) roundTowardZero (fp.mul roundNearestTiesToEven (_4!202 lt!8123) (fp #b0 #b01111111100 #b0000000000000000000000000000000000000000000000000000))))))))))))

(declare-fun e!8645 () tuple4!404)

(assert (=> b!15646 (= lt!8123 e!8645)))

(declare-fun c!1955 () Bool)

(assert (=> b!15646 (= c!1955 (bvsgt jz!20 #b00000000000000000000000000000000))))

(declare-fun lt!8119 () (_ FloatingPoint 11 53))

(declare-datatypes ((array!1178 0))(
  ( (array!1179 (arr!514 (Array (_ BitVec 32) (_ FloatingPoint 11 53))) (size!514 (_ BitVec 32))) )
))
(declare-fun q!31 () array!1178)

(assert (=> b!15646 (= lt!8119 (select (arr!514 q!31) jz!20))))

(declare-fun lt!8121 () array!1176)

(assert (=> b!15646 (= lt!8121 (array!1177 ((as const (Array (_ BitVec 32) (_ BitVec 32))) #b00000000000000000000000000000000) #b00000000000000000000000000010100))))

(declare-fun b!15647 () Bool)

(declare-fun res!12158 () Bool)

(assert (=> b!15647 (=> (not res!12158) (not e!8647))))

(declare-fun qInv!0 (array!1178) Bool)

(assert (=> b!15647 (= res!12158 (qInv!0 q!31))))

(declare-fun lt!8122 () (_ BitVec 32))

(declare-fun carry!33 () (_ BitVec 32))

(declare-fun e!8646 () Bool)

(declare-fun lt!8120 () (_ BitVec 32))

(declare-fun b!15648 () Bool)

(declare-fun iq!76 () array!1176)

(declare-datatypes ((tuple4!406 0))(
  ( (tuple4!407 (_1!402 Unit!1637) (_2!402 (_ BitVec 32)) (_3!334 array!1176) (_4!203 (_ BitVec 32))) )
))
(declare-fun computeModuloWhile!3 ((_ BitVec 32) array!1178 (_ BitVec 32) array!1176 (_ BitVec 32)) tuple4!406)

(assert (=> b!15648 (= e!8646 (bvslt (_2!402 (computeModuloWhile!3 jz!20 q!31 lt!8120 (array!1177 (store (arr!513 iq!76) i!142 (ite (= carry!33 #b00000000000000000000000000000000) (ite (not (= lt!8122 #b00000000000000000000000000000000)) (bvsub #b00000001000000000000000000000000 lt!8122) #b00000000000000000000000000000000) (bvsub #b00000000111111111111111111111111 lt!8122))) (size!513 iq!76)) (ite (and (= carry!33 #b00000000000000000000000000000000) (not (= lt!8122 #b00000000000000000000000000000000))) #b00000000000000000000000000000001 carry!33))) (bvsub jz!20 #b00000000000000000000000000000001)))))

(declare-fun b!15649 () Bool)

(declare-fun res!12161 () Bool)

(assert (=> b!15649 (=> (not res!12161) (not e!8648))))

(assert (=> b!15649 (= res!12161 (and (bvsge (select (arr!513 iq!76) (bvsub jz!20 #b00000000000000000000000000000001)) #b00000000100000000000000000000000) (or (= carry!33 #b00000000000000000000000000000000) (= carry!33 #b00000000000000000000000000000001)) (bvslt i!142 (bvsub jz!20 #b00000000000000000000000000000001))))))

(declare-fun b!15650 () Bool)

(declare-fun e!8650 () Bool)

(assert (=> b!15650 (= e!8648 e!8650)))

(declare-fun res!12159 () Bool)

(assert (=> b!15650 (=> (not res!12159) (not e!8650))))

(declare-fun QInt!0 ((_ BitVec 32)) Bool)

(assert (=> b!15650 (= res!12159 (QInt!0 lt!8122))))

(assert (=> b!15650 (= lt!8122 (select (arr!513 iq!76) i!142))))

(declare-fun b!15651 () Bool)

(declare-fun res!12162 () Bool)

(assert (=> b!15651 (=> (not res!12162) (not e!8648))))

(declare-fun iqInv!0 (array!1176) Bool)

(assert (=> b!15651 (= res!12162 (iqInv!0 iq!76))))

(declare-fun res!12160 () Bool)

(assert (=> start!2847 (=> (not res!12160) (not e!8647))))

(assert (=> start!2847 (= res!12160 (and (bvsle #b00000000000000000000000000000010 jz!20) (bvslt jz!20 #b00000000000000000000000000010011)))))

(assert (=> start!2847 e!8647))

(assert (=> start!2847 true))

(declare-fun array_inv!461 (array!1178) Bool)

(assert (=> start!2847 (array_inv!461 q!31)))

(declare-fun array_inv!462 (array!1176) Bool)

(assert (=> start!2847 (array_inv!462 iq!76)))

(declare-fun b!15652 () Bool)

(assert (=> b!15652 (= e!8650 e!8646)))

(declare-fun res!12163 () Bool)

(assert (=> b!15652 (=> (not res!12163) (not e!8646))))

(assert (=> b!15652 (= res!12163 (bvslt lt!8120 (bvsub jz!20 #b00000000000000000000000000000001)))))

(assert (=> b!15652 (= lt!8120 (bvadd i!142 #b00000000000000000000000000000001))))

(declare-fun b!15653 () Bool)

(declare-fun Unit!1639 () Unit!1637)

(assert (=> b!15653 (= e!8645 (tuple4!405 Unit!1639 lt!8121 jz!20 lt!8119))))

(declare-fun b!15654 () Bool)

(declare-fun computeModuloWhile!0 ((_ BitVec 32) array!1178 array!1176 (_ BitVec 32) (_ FloatingPoint 11 53)) tuple4!404)

(assert (=> b!15654 (= e!8645 (computeModuloWhile!0 jz!20 q!31 lt!8121 jz!20 lt!8119))))

(assert (= (and start!2847 res!12160) b!15647))

(assert (= (and b!15647 res!12158) b!15646))

(assert (= (and b!15646 c!1955) b!15654))

(assert (= (and b!15646 (not c!1955)) b!15653))

(assert (= (and b!15646 res!12164) b!15651))

(assert (= (and b!15651 res!12162) b!15649))

(assert (= (and b!15649 res!12161) b!15650))

(assert (= (and b!15650 res!12159) b!15652))

(assert (= (and b!15652 res!12163) b!15648))

(declare-fun m!25055 () Bool)

(assert (=> b!15651 m!25055))

(declare-fun m!25057 () Bool)

(assert (=> b!15648 m!25057))

(declare-fun m!25059 () Bool)

(assert (=> b!15648 m!25059))

(declare-fun m!25061 () Bool)

(assert (=> b!15650 m!25061))

(declare-fun m!25063 () Bool)

(assert (=> b!15650 m!25063))

(declare-fun m!25065 () Bool)

(assert (=> b!15646 m!25065))

(declare-fun m!25067 () Bool)

(assert (=> b!15646 m!25067))

(declare-fun m!25069 () Bool)

(assert (=> b!15654 m!25069))

(declare-fun m!25071 () Bool)

(assert (=> b!15649 m!25071))

(declare-fun m!25073 () Bool)

(assert (=> b!15647 m!25073))

(declare-fun m!25075 () Bool)

(assert (=> start!2847 m!25075))

(declare-fun m!25077 () Bool)

(assert (=> start!2847 m!25077))

(push 1)

(assert (not start!2847))

(assert (not b!15650))

(assert (not b!15647))

(assert (not b!15654))

(assert (not b!15651))

(assert (not b!15648))

(check-sat)

(pop 1)

(push 1)

(check-sat)

(get-model)

(pop 1)

(declare-fun d!7649 () Bool)

(assert (=> d!7649 (= (QInt!0 lt!8122) (and (bvsle #b00000000000000000000000000000000 lt!8122) (bvsle lt!8122 #b00000000111111111111111111111111)))))

(assert (=> b!15650 d!7649))

(declare-fun d!7651 () Bool)

(declare-fun res!12167 () Bool)

(declare-fun e!8654 () Bool)

(assert (=> d!7651 (=> (not res!12167) (not e!8654))))

(assert (=> d!7651 (= res!12167 (= (size!513 iq!76) #b00000000000000000000000000010100))))

(assert (=> d!7651 (= (iqInv!0 iq!76) e!8654)))

(declare-fun b!15657 () Bool)

(declare-fun lambda!710 () Int)

(declare-fun all20Int!0 (array!1176 Int) Bool)

(assert (=> b!15657 (= e!8654 (all20Int!0 iq!76 lambda!710))))

(assert (= (and d!7651 res!12167) b!15657))

(declare-fun m!25079 () Bool)

(assert (=> b!15657 m!25079))

(assert (=> b!15651 d!7651))

(declare-fun b!15678 () Bool)

(declare-fun res!12184 () Bool)

(declare-fun e!8666 () Bool)

(assert (=> b!15678 (=> (not res!12184) (not e!8666))))

(assert (=> b!15678 (= res!12184 (iqInv!0 (array!1177 (store (arr!513 iq!76) i!142 (ite (= carry!33 #b00000000000000000000000000000000) (ite (not (= lt!8122 #b00000000000000000000000000000000)) (bvsub #b00000001000000000000000000000000 lt!8122) #b00000000000000000000000000000000) (bvsub #b00000000111111111111111111111111 lt!8122))) (size!513 iq!76))))))

(declare-fun lt!8149 () (_ FloatingPoint 11 53))

(declare-fun lt!8144 () array!1176)

(declare-fun e!8663 () tuple4!404)

(declare-fun b!15679 () Bool)

(assert (=> b!15679 (= e!8663 (computeModuloWhile!0 jz!20 q!31 lt!8144 jz!20 lt!8149))))

(declare-fun e!8665 () tuple4!406)

(declare-fun lt!8145 () array!1176)

(declare-fun lt!8143 () (_ BitVec 32))

(declare-fun lt!8142 () (_ BitVec 32))

(declare-fun b!15680 () Bool)

(assert (=> b!15680 (= e!8665 (computeModuloWhile!3 jz!20 q!31 lt!8142 lt!8145 lt!8143))))

(declare-fun b!15681 () Bool)

(assert (=> b!15681 (= e!8666 (and (bvsge (select (arr!513 (array!1177 (store (arr!513 iq!76) i!142 (ite (= carry!33 #b00000000000000000000000000000000) (ite (not (= lt!8122 #b00000000000000000000000000000000)) (bvsub #b00000001000000000000000000000000 lt!8122) #b00000000000000000000000000000000) (bvsub #b00000000111111111111111111111111 lt!8122))) (size!513 iq!76))) (bvsub jz!20 #b00000000000000000000000000000001)) #b00000000100000000000000000000000) (or (= (ite (and (= carry!33 #b00000000000000000000000000000000) (not (= lt!8122 #b00000000000000000000000000000000))) #b00000000000000000000000000000001 carry!33) #b00000000000000000000000000000000) (= (ite (and (= carry!33 #b00000000000000000000000000000000) (not (= lt!8122 #b00000000000000000000000000000000))) #b00000000000000000000000000000001 carry!33) #b00000000000000000000000000000001)) (bvslt lt!8120 (bvsub jz!20 #b00000000000000000000000000000001))))))

(declare-fun b!15682 () Bool)

(declare-fun res!12181 () Bool)

(declare-fun e!8664 () Bool)

(assert (=> b!15682 (=> (not res!12181) (not e!8664))))

(declare-fun lt!8148 () tuple4!406)

(declare-fun lt!8146 () (_ BitVec 32))

(assert (=> b!15682 (= res!12181 (bvsge (select (arr!513 (_3!334 lt!8148)) lt!8146) #b00000000100000000000000000000000))))

(assert (=> b!15682 (and (bvsge lt!8146 #b00000000000000000000000000000000) (bvslt lt!8146 (size!513 (_3!334 lt!8148))))))

(assert (=> b!15682 (= lt!8146 (bvsub jz!20 #b00000000000000000000000000000001))))

(assert (=> b!15682 (or (= (bvand jz!20 #b10000000000000000000000000000000) #b00000000000000000000000000000000) (= (bvand jz!20 #b10000000000000000000000000000000) (bvand (bvsub jz!20 #b00000000000000000000000000000001) #b10000000000000000000000000000000)))))

(declare-fun b!15683 () Bool)

(declare-fun Unit!1640 () Unit!1637)

(assert (=> b!15683 (= e!8665 (tuple4!407 Unit!1640 lt!8142 lt!8145 lt!8143))))

(declare-fun b!15684 () Bool)

(assert (=> b!15684 (= e!8664 (bvsge (_2!402 lt!8148) (bvsub jz!20 #b00000000000000000000000000000001)))))

(assert (=> b!15684 (or (= (bvand jz!20 #b10000000000000000000000000000000) #b00000000000000000000000000000000) (= (bvand jz!20 #b10000000000000000000000000000000) (bvand (bvsub jz!20 #b00000000000000000000000000000001) #b10000000000000000000000000000000)))))

(declare-fun b!15685 () Bool)

(declare-fun res!12183 () Bool)

(assert (=> b!15685 (=> (not res!12183) (not e!8664))))

(assert (=> b!15685 (= res!12183 (iqInv!0 (_3!334 lt!8148)))))

(declare-fun b!15686 () Bool)

(declare-fun Unit!1641 () Unit!1637)

(assert (=> b!15686 (= e!8663 (tuple4!405 Unit!1641 lt!8144 jz!20 lt!8149))))

(declare-fun b!15687 () Bool)

(declare-fun res!12182 () Bool)

(assert (=> b!15687 (=> (not res!12182) (not e!8664))))

(assert (=> b!15687 (= res!12182 (or (= (_4!203 lt!8148) #b00000000000000000000000000000000) (= (_4!203 lt!8148) #b00000000000000000000000000000001)))))

(declare-fun d!7653 () Bool)

(assert (=> d!7653 e!8664))

(declare-fun res!12180 () Bool)

(assert (=> d!7653 (=> (not res!12180) (not e!8664))))

(assert (=> d!7653 (= res!12180 (and (or (bvsgt #b00000000000000000000000000000000 (_2!402 lt!8148)) (= (bvand jz!20 #b10000000000000000000000000000000) #b00000000000000000000000000000000) (= (bvand jz!20 #b10000000000000000000000000000000) (bvand (bvsub jz!20 #b00000000000000000000000000000001) #b10000000000000000000000000000000))) (bvsle #b00000000000000000000000000000000 (_2!402 lt!8148)) (bvsle (_2!402 lt!8148) (bvsub jz!20 #b00000000000000000000000000000001))))))

(assert (=> d!7653 (= lt!8148 e!8665)))

(declare-fun c!1960 () Bool)

(assert (=> d!7653 (= c!1960 (bvslt lt!8142 (bvsub jz!20 #b00000000000000000000000000000001)))))

(assert (=> d!7653 (= lt!8142 (bvadd lt!8120 #b00000000000000000000000000000001))))

(declare-fun lt!8150 () (_ BitVec 32))

(assert (=> d!7653 (= lt!8143 (ite (and (= (ite (and (= carry!33 #b00000000000000000000000000000000) (not (= lt!8122 #b00000000000000000000000000000000))) #b00000000000000000000000000000001 carry!33) #b00000000000000000000000000000000) (not (= lt!8150 #b00000000000000000000000000000000))) #b00000000000000000000000000000001 (ite (and (= carry!33 #b00000000000000000000000000000000) (not (= lt!8122 #b00000000000000000000000000000000))) #b00000000000000000000000000000001 carry!33)))))

(assert (=> d!7653 (= lt!8145 (array!1177 (store (arr!513 (array!1177 (store (arr!513 iq!76) i!142 (ite (= carry!33 #b00000000000000000000000000000000) (ite (not (= lt!8122 #b00000000000000000000000000000000)) (bvsub #b00000001000000000000000000000000 lt!8122) #b00000000000000000000000000000000) (bvsub #b00000000111111111111111111111111 lt!8122))) (size!513 iq!76))) lt!8120 (ite (= (ite (and (= carry!33 #b00000000000000000000000000000000) (not (= lt!8122 #b00000000000000000000000000000000))) #b00000000000000000000000000000001 carry!33) #b00000000000000000000000000000000) (ite (not (= lt!8150 #b00000000000000000000000000000000)) (bvsub #b00000001000000000000000000000000 lt!8150) #b00000000000000000000000000000000) (bvsub #b00000000111111111111111111111111 lt!8150))) (size!513 (array!1177 (store (arr!513 iq!76) i!142 (ite (= carry!33 #b00000000000000000000000000000000) (ite (not (= lt!8122 #b00000000000000000000000000000000)) (bvsub #b00000001000000000000000000000000 lt!8122) #b00000000000000000000000000000000) (bvsub #b00000000111111111111111111111111 lt!8122))) (size!513 iq!76)))))))

(assert (=> d!7653 (= lt!8150 (select (arr!513 (array!1177 (store (arr!513 iq!76) i!142 (ite (= carry!33 #b00000000000000000000000000000000) (ite (not (= lt!8122 #b00000000000000000000000000000000)) (bvsub #b00000001000000000000000000000000 lt!8122) #b00000000000000000000000000000000) (bvsub #b00000000111111111111111111111111 lt!8122))) (size!513 iq!76))) lt!8120))))

(assert (=> d!7653 e!8666))

(declare-fun res!12185 () Bool)

(assert (=> d!7653 (=> (not res!12185) (not e!8666))))

(assert (=> d!7653 (= res!12185 (and (bvsle #b00000000000000000000000000000000 lt!8120) (bvsle lt!8120 (bvsub jz!20 #b00000000000000000000000000000001))))))

(declare-fun lt!8147 () tuple4!404)

(assert (=> d!7653 (= lt!8147 e!8663)))

(declare-fun c!1961 () Bool)

(assert (=> d!7653 (= c!1961 (bvsgt jz!20 #b00000000000000000000000000000000))))

(assert (=> d!7653 (= lt!8149 (select (arr!514 q!31) jz!20))))

(assert (=> d!7653 (= lt!8144 (array!1177 ((as const (Array (_ BitVec 32) (_ BitVec 32))) #b00000000000000000000000000000000) #b00000000000000000000000000010100))))

(assert (=> d!7653 (= (computeModuloWhile!3 jz!20 q!31 lt!8120 (array!1177 (store (arr!513 iq!76) i!142 (ite (= carry!33 #b00000000000000000000000000000000) (ite (not (= lt!8122 #b00000000000000000000000000000000)) (bvsub #b00000001000000000000000000000000 lt!8122) #b00000000000000000000000000000000) (bvsub #b00000000111111111111111111111111 lt!8122))) (size!513 iq!76)) (ite (and (= carry!33 #b00000000000000000000000000000000) (not (= lt!8122 #b00000000000000000000000000000000))) #b00000000000000000000000000000001 carry!33)) lt!8148)))

(assert (= (and d!7653 c!1961) b!15679))

(assert (= (and d!7653 (not c!1961)) b!15686))

(assert (= (and d!7653 res!12185) b!15678))

(assert (= (and b!15678 res!12184) b!15681))

(assert (= (and d!7653 c!1960) b!15680))

(assert (= (and d!7653 (not c!1960)) b!15683))

(assert (= (and d!7653 res!12180) b!15685))

(assert (= (and b!15685 res!12183) b!15682))

(assert (= (and b!15682 res!12181) b!15687))

(assert (= (and b!15687 res!12182) b!15684))

(declare-fun m!25081 () Bool)

(assert (=> b!15679 m!25081))

(declare-fun m!25083 () Bool)

(assert (=> b!15685 m!25083))

(declare-fun m!25085 () Bool)

(assert (=> d!7653 m!25085))

(declare-fun m!25087 () Bool)

(assert (=> d!7653 m!25087))

(assert (=> d!7653 m!25067))

(declare-fun m!25089 () Bool)

(assert (=> b!15681 m!25089))

(declare-fun m!25091 () Bool)

(assert (=> b!15678 m!25091))

(declare-fun m!25093 () Bool)

(assert (=> b!15680 m!25093))

(declare-fun m!25095 () Bool)

(assert (=> b!15682 m!25095))

(assert (=> b!15648 d!7653))

(declare-fun d!7655 () Bool)

(declare-fun res!12188 () Bool)

(declare-fun e!8669 () Bool)

(assert (=> d!7655 (=> (not res!12188) (not e!8669))))

(assert (=> d!7655 (= res!12188 (= (size!514 q!31) #b00000000000000000000000000010100))))

(assert (=> d!7655 (= (qInv!0 q!31) e!8669)))

(declare-fun b!15690 () Bool)

(declare-fun lambda!713 () Int)

(declare-fun all20!0 (array!1178 Int) Bool)

(assert (=> b!15690 (= e!8669 (all20!0 q!31 lambda!713))))

(assert (= (and d!7655 res!12188) b!15690))

(declare-fun m!25097 () Bool)

(assert (=> b!15690 m!25097))

(assert (=> b!15647 d!7655))

(declare-fun d!7657 () Bool)

(assert (=> d!7657 (= (array_inv!461 q!31) (bvsge (size!514 q!31) #b00000000000000000000000000000000))))

(assert (=> start!2847 d!7657))

(declare-fun d!7659 () Bool)

(assert (=> d!7659 (= (array_inv!462 iq!76) (bvsge (size!513 iq!76) #b00000000000000000000000000000000))))

(assert (=> start!2847 d!7659))

(declare-fun lt!8165 () (_ FloatingPoint 11 53))

(declare-fun lt!8162 () (_ BitVec 32))

(declare-fun b!15703 () Bool)

(declare-fun lt!8161 () array!1176)

(declare-fun e!8678 () tuple4!404)

(assert (=> b!15703 (= e!8678 (computeModuloWhile!0 jz!20 q!31 lt!8161 lt!8162 lt!8165))))

(declare-fun b!15704 () Bool)

(declare-fun e!8676 () Bool)

(assert (=> b!15704 (= e!8676 (bvsgt jz!20 #b00000000000000000000000000000000))))

(declare-fun b!15705 () Bool)

(declare-fun res!12198 () Bool)

(assert (=> b!15705 (=> (not res!12198) (not e!8676))))

(assert (=> b!15705 (= res!12198 (iqInv!0 lt!8121))))

(declare-fun d!7661 () Bool)

(declare-fun e!8677 () Bool)

(assert (=> d!7661 e!8677))

(declare-fun res!12197 () Bool)

(assert (=> d!7661 (=> (not res!12197) (not e!8677))))

(declare-fun lt!8164 () tuple4!404)

(assert (=> d!7661 (= res!12197 (and true true (bvsle #b00000000000000000000000000000000 (_3!333 lt!8164)) (bvsle (_3!333 lt!8164) jz!20) (fp.leq (fp #b0 #b00000000000 #b0000000000000000000000000000000000000000000000000000) (_4!202 lt!8164)) (fp.leq (_4!202 lt!8164) (fp #b0 #b10000110001 #b0100000000000000000000010011111111111111111111111100))))))

(assert (=> d!7661 (= lt!8164 e!8678)))

(declare-fun c!1964 () Bool)

(assert (=> d!7661 (= c!1964 (bvsgt lt!8162 #b00000000000000000000000000000000))))

(assert (=> d!7661 (= lt!8162 (bvsub jz!20 #b00000000000000000000000000000001))))

(declare-fun lt!8163 () (_ FloatingPoint 11 53))

(assert (=> d!7661 (= lt!8165 (fp.add roundNearestTiesToEven (select (arr!514 q!31) (bvsub jz!20 #b00000000000000000000000000000001)) lt!8163))))

(assert (=> d!7661 (= lt!8161 (array!1177 (store (arr!513 lt!8121) (bvsub jz!20 jz!20) (ite (fp.isNaN (fp.sub roundNearestTiesToEven lt!8119 (fp.mul roundNearestTiesToEven (fp #b0 #b10000010111 #b0000000000000000000000000000000000000000000000000000) lt!8163))) #b00000000000000000000000000000000 (ite (fp.gt (fp.sub roundNearestTiesToEven lt!8119 (fp.mul roundNearestTiesToEven (fp #b0 #b10000010111 #b0000000000000000000000000000000000000000000000000000) lt!8163)) ((_ to_fp 11 53) roundTowardZero #b01111111111111111111111111111111)) #b01111111111111111111111111111111 (ite (fp.lt (fp.sub roundNearestTiesToEven lt!8119 (fp.mul roundNearestTiesToEven (fp #b0 #b10000010111 #b0000000000000000000000000000000000000000000000000000) lt!8163)) ((_ to_fp 11 53) roundTowardZero #b10000000000000000000000000000000)) #b10000000000000000000000000000000 ((_ fp.to_sbv 32) roundTowardZero (fp.sub roundNearestTiesToEven lt!8119 (fp.mul roundNearestTiesToEven (fp #b0 #b10000010111 #b0000000000000000000000000000000000000000000000000000) lt!8163))))))) (size!513 lt!8121)))))

(assert (=> d!7661 (= lt!8163 ((_ to_fp 11 53) roundNearestTiesToEven (ite (fp.isNaN (fp.mul roundNearestTiesToEven (fp #b0 #b01111100111 #b0000000000000000000000000000000000000000000000000000) lt!8119)) #b00000000000000000000000000000000 (ite (fp.gt (fp.mul roundNearestTiesToEven (fp #b0 #b01111100111 #b0000000000000000000000000000000000000000000000000000) lt!8119) ((_ to_fp 11 53) roundTowardZero #b01111111111111111111111111111111)) #b01111111111111111111111111111111 (ite (fp.lt (fp.mul roundNearestTiesToEven (fp #b0 #b01111100111 #b0000000000000000000000000000000000000000000000000000) lt!8119) ((_ to_fp 11 53) roundTowardZero #b10000000000000000000000000000000)) #b10000000000000000000000000000000 ((_ fp.to_sbv 32) roundTowardZero (fp.mul roundNearestTiesToEven (fp #b0 #b01111100111 #b0000000000000000000000000000000000000000000000000000) lt!8119)))))))))

(assert (=> d!7661 e!8676))

(declare-fun res!12199 () Bool)

(assert (=> d!7661 (=> (not res!12199) (not e!8676))))

(assert (=> d!7661 (= res!12199 (and (bvsle #b00000000000000000000000000000000 jz!20) (bvsle jz!20 jz!20) (fp.leq (fp #b0 #b00000000000 #b0000000000000000000000000000000000000000000000000000) lt!8119) (fp.leq lt!8119 (fp #b0 #b10000110001 #b0100000000000000000000010011111111111111111111111100))))))

(assert (=> d!7661 (= (computeModuloWhile!0 jz!20 q!31 lt!8121 jz!20 lt!8119) lt!8164)))

(declare-fun b!15706 () Bool)

(declare-fun res!12200 () Bool)

(assert (=> b!15706 (=> (not res!12200) (not e!8677))))

(assert (=> b!15706 (= res!12200 (iqInv!0 (_2!401 lt!8164)))))

(declare-fun b!15707 () Bool)

(declare-fun Unit!1642 () Unit!1637)

(assert (=> b!15707 (= e!8678 (tuple4!405 Unit!1642 lt!8161 lt!8162 lt!8165))))

(declare-fun b!15708 () Bool)

(assert (=> b!15708 (= e!8677 (bvsle (_3!333 lt!8164) #b00000000000000000000000000000000))))

(assert (= (and d!7661 res!12199) b!15705))

(assert (= (and b!15705 res!12198) b!15704))

(assert (= (and d!7661 c!1964) b!15703))

(assert (= (and d!7661 (not c!1964)) b!15707))

(assert (= (and d!7661 res!12197) b!15706))

(assert (= (and b!15706 res!12200) b!15708))

(declare-fun m!25099 () Bool)

(assert (=> b!15703 m!25099))

(declare-fun m!25101 () Bool)

(assert (=> b!15705 m!25101))

(declare-fun m!25103 () Bool)

(assert (=> d!7661 m!25103))

(declare-fun m!25105 () Bool)

(assert (=> d!7661 m!25105))

(declare-fun m!25107 () Bool)

(assert (=> b!15706 m!25107))

(assert (=> b!15654 d!7661))

(push 1)

(assert (not b!15685))

(assert (not b!15657))

(assert (not b!15678))

(assert (not b!15690))

(assert (not b!15679))

(assert (not b!15705))

(assert (not b!15680))

(assert (not b!15703))

(assert (not b!15706))

(check-sat)

(pop 1)

(push 1)

(check-sat)

(pop 1)

